120
150
95
83
72
86
53
93
46
53
64
70
79
89
28
61
25
95
50
28
95
32
36
68
57
21
64
46
47
70
45
44
78
33
61
23
86
72
70
84
89
64
79
47
28
61
86
23
50
72
66
20
52
53
48
98
28
57
49
72
70
32
32
72
95
25
41
72
97
56
64
98
29
36
21
64
86
53
70
86
86
52
49
66
84
31
95
28
82
32
64
50
89
32
29
61
70
48
39
52
48
50
32
89
61
32
71
47
41
20
21
61
83
48
29
95
38
89
86
53
61
64
